(set-logic QF_S)
(set-option :strings-exp true)
(set-option :produce-models true)
(declare-fun x_7 () String)
(declare-fun epsilon () String)
(declare-fun literal_4 () String)
(declare-fun literal_5 () String)
(declare-fun literal_8 () String)
(declare-fun x_9 () String)
(assert (= epsilon ""))
(assert (= literal_4 ""))
(assert (= literal_5 "\x73\x74\x61\x6e\x64\x61\x72\x64\x77\x68\x69\x74\x65"))
(assert (or (= x_7 epsilon) (= x_7 literal_4) (= x_7 literal_5)))
(assert (= literal_8 "\x2f\x63\x6f\x6e\x66\x69\x67\x2e\x70\x68\x70"))
(assert (= x_9 (str.++ x_7 literal_8)))
(assert (str.in.re x_9 (re.++ (re.* re.allchar) (re.++ (str.to.re "\x2f\x65\x76\x69\x6c") (re.* re.allchar)))))
(check-sat)
(get-model)
